n=12;
m=66;
E=[|11,9
|10,4
|9,1
|6,4
|11,12
|10,11
|6,8
|7,1
|5,8
|9,11
|2,11
|7,3
|3,2
|4,11
|6,9
|2,11
|9,12
|8,9
|12,2
|12,1
|6,5
|2,6
|5,8
|7,1
|1,10
|3,5
|6,9
|9,8
|6,2
|2,6
|6,8
|11,12
|5,4
|12,1
|1,3
|3,12
|8,1
|6,1
|2,5
|2,3
|3,5
|11,9
|1,12
|11,7
|1,5
|12,2
|6,2
|9,8
|1,10
|2,8
|9,8
|12,5
|11,1
|1,5
|12,4
|1,9
|3,8
|3,2
|4,3
|5,2
|3,8
|4,5
|2,7
|12,8
|10,2
|12,1
|];

